p cnf 59 185
3 1 0
3 2 0
-1 -2 -3 0
6 4 0
6 -5 0
-4 5 -6 0
10 8 0
10 -9 0
-8 9 -10 0
7 -10 -11 0
-7 10 -11 0
7 10 11 0
-7 -10 11 0
12 6 0
12 -11 0
-6 11 -12 0
14 -13 0
14 -4 0
13 4 -14 0
-8 -14 -15 0
8 14 -15 0
-8 14 15 0
8 -14 15 0
12 15 -16 0
-12 -15 -16 0
12 -15 16 0
-12 15 16 0
17 -3 0
17 16 0
3 -16 -17 0
-18 -5 -19 0
18 5 -19 0
-18 5 19 0
18 -5 19 0
21 -13 0
21 -20 0
13 20 -21 0
22 21 0
22 18 0
-21 -18 -22 0
19 -22 -23 0
-19 22 -23 0
19 22 23 0
-19 -22 23 0
-18 4 -24 0
18 -4 -24 0
-18 -4 24 0
18 4 24 0
-24 -25 -26 0
24 25 -26 0
-24 25 26 0
24 -25 26 0
2 7 -27 0
-2 -7 -27 0
2 -7 27 0
-2 7 27 0
-18 27 -28 0
18 -27 -28 0
-18 -27 28 0
18 27 28 0
29 -26 0
29 -28 0
26 28 -29 0
30 -23 0
30 29 0
23 -29 -30 0
31 22 0
31 27 0
-22 -27 -31 0
31 -32 -33 0
-31 32 -33 0
31 32 33 0
-31 -32 33 0
-34 5 0
-34 8 0
-5 -8 34 0
36 7 0
36 -35 0
-7 35 -36 0
37 -34 0
37 36 0
34 -36 -37 0
-38 -25 0
-38 -21 0
25 21 38 0
-39 37 0
-39 -38 0
-37 38 39 0
40 -33 0
40 -39 0
33 39 -40 0
-14 35 -41 0
14 -35 -41 0
-14 -35 41 0
14 35 41 0
-41 -20 -42 0
41 20 -42 0
-41 20 42 0
41 -20 42 0
43 40 0
43 42 0
-40 -42 -43 0
2 -9 -44 0
-2 9 -44 0
2 9 44 0
-2 -9 44 0
-46 -45 0
-46 2 0
45 -2 46 0
25 -45 -47 0
-25 45 -47 0
25 45 47 0
-25 -45 47 0
48 -46 0
48 -47 0
46 47 -48 0
44 48 -49 0
-44 -48 -49 0
44 -48 49 0
-44 48 49 0
-25 -50 0
25 -50 0
11 -10 -51 0
-11 10 -51 0
11 10 51 0
-11 -10 51 0
52 50 0
52 -51 0
-50 51 -52 0
53 -49 0
53 -52 0
49 52 -53 0
54 -43 0
54 -53 0
43 53 -54 0
30 54 -55 0
-30 -54 -55 0
30 -54 55 0
-30 54 55 0
56 -17 0
56 55 0
17 -55 -56 0
57 -9 0
57 -9 0
9 -57 0
36 -57 -58 0
-36 57 -58 0
36 57 58 0
-36 -57 58 0
56 -58 -59 0
-56 58 -59 0
56 58 59 0
-56 -58 59 0
32 46 -11 -27 24 -6 0
-43 -37 -41 32 0
-5 -1 -31 -57 0
-50 -30 36 -6 0
15 -41 -8 0
-21 15 0
29 -38 -15 39 0
-53 -28 -32 0
-19 33 0
-6 -13 0
-7 38 -50 4 0
55 -14 0
4 -55 43 21 30 0
-38 39 0
32 44 -6 20 -54 0
34 29 -53 -50 -55 47 0
17 43 10 14 41 0
-10 34 58 20 0
30 -10 -11 0
-13 -33 -35 37 -12 47 0
-43 -58 50 59 -9 0
-32 -29 49 0
-37 -12 2 0
-49 -35 14 -38 0
-31 -20 -27 -9 -1 0
-33 -28 -16 25 52 -15 0
-36 -12 0
-14 53 -50 58 -2 -34 0
-31 -43 0
33 -42 31 -1 17 -2 0
-48 -52 -35 22 0
59 0
